<?xml version = "1.0" standalone="yes"?>
<!-- This file has been generated by DOcplex version 2.23.222  -->
<CPLEXSolution version="1.0">
 <header
   problemName="CVRP"
   objectiveValue="20634.9"
  />
 <variables>
  <variable name="x_0_3" index="2" value="1.00000"/>
  <variable name="x_0_4" index="3" value="1.00000"/>
  <variable name="x_0_5" index="4" value="1.00000"/>
  <variable name="x_0_6" index="5" value="1.00000"/>
  <variable name="x_0_7" index="6" value="1.00000"/>
  <variable name="x_0_8" index="7" value="1.00000"/>
  <variable name="x_0_9" index="8" value="1.00000"/>
  <variable name="x_0_10" index="9" value="1.00000"/>
  <variable name="x_0_12" index="11" value="1.00000"/>
  <variable name="x_0_14" index="13" value="1.00000"/>
  <variable name="x_0_15" index="14" value="1.00000"/>
  <variable name="x_0_20" index="19" value="1.00000"/>
  <variable name="x_0_22" index="21" value="1.00000"/>
  <variable name="x_0_23" index="22" value="1.00000"/>
  <variable name="x_0_24" index="23" value="1.00000"/>
  <variable name="x_0_25" index="24" value="1.00000"/>
  <variable name="x_1_0" index="26" value="1.00000"/>
  <variable name="x_2_0" index="52" value="1.00000"/>
  <variable name="x_3_21" index="98" value="1.00000"/>
  <variable name="x_4_11" index="114" value="1.00000"/>
  <variable name="x_5_0" index="130" value="1.00000"/>
  <variable name="x_6_26" index="181" value="1.00000"/>
  <variable name="x_7_1" index="183" value="1.00000"/>
  <variable name="x_8_0" index="208" value="1.00000"/>
  <variable name="x_9_2" index="236" value="1.00000"/>
  <variable name="x_10_17" index="276" value="1.00000"/>
  <variable name="x_11_0" index="286" value="1.00000"/>
  <variable name="x_12_0" index="312" value="1.00000"/>
  <variable name="x_13_0" index="338" value="1.00000"/>
  <variable name="x_14_18" index="381" value="1.00000"/>
  <variable name="x_15_0" index="390" value="1.00000"/>
  <variable name="x_16_0" index="416" value="1.00000"/>
  <variable name="x_17_13" index="455" value="1.00000"/>
  <variable name="x_18_0" index="468" value="1.00000"/>
  <variable name="x_19_0" index="494" value="1.00000"/>
  <variable name="x_20_0" index="520" value="1.00000"/>
  <variable name="x_21_0" index="546" value="1.00000"/>
  <variable name="x_22_19" index="591" value="1.00000"/>
  <variable name="x_23_0" index="598" value="1.00000"/>
  <variable name="x_24_16" index="640" value="1.00000"/>
  <variable name="x_25_0" index="650" value="1.00000"/>
  <variable name="x_26_0" index="676" value="1.00000"/>
  <variable name="u_1" index="702" value="32.00000"/>
  <variable name="u_2" index="703" value="32.00000"/>
  <variable name="u_3" index="704" value="13.00000"/>
  <variable name="u_4" index="705" value="18.00000"/>
  <variable name="u_5" index="706" value="31.00000"/>
  <variable name="u_6" index="707" value="14.00000"/>
  <variable name="u_7" index="708" value="8.00000"/>
  <variable name="u_8" index="709" value="32.00000"/>
  <variable name="u_9" index="710" value="12.00000"/>
  <variable name="u_10" index="711" value="12.00000"/>
  <variable name="u_11" index="712" value="29.00000"/>
  <variable name="u_12" index="713" value="32.00000"/>
  <variable name="u_13" index="714" value="30.00000"/>
  <variable name="u_14" index="715" value="24.00000"/>
  <variable name="u_15" index="716" value="31.00000"/>
  <variable name="u_16" index="717" value="32.00000"/>
  <variable name="u_17" index="718" value="20.00000"/>
  <variable name="u_18" index="719" value="28.00000"/>
  <variable name="u_19" index="720" value="30.00000"/>
  <variable name="u_20" index="721" value="28.00000"/>
  <variable name="u_21" index="722" value="32.00000"/>
  <variable name="u_22" index="723" value="20.00000"/>
  <variable name="u_23" index="724" value="32.00000"/>
  <variable name="u_24" index="725" value="26.00000"/>
  <variable name="u_25" index="726" value="32.00000"/>
  <variable name="u_26" index="727" value="30.00000"/>
 </variables>
</CPLEXSolution>
